User:   s173965@n-62-29-35
Date:   Wed Apr 20 15:48:44 2022
Arch:   x86_64
Pid:    22289
Python: 3.8.5
gpaw:   /zhome/3e/3/126995/10302-venv/gpaw/gpaw (4eb9f4db50)
_gpaw:  /zhome/3e/3/126995/10302-venv/gpaw/
        _gpaw.cpython-38-x86_64-linux-gnu.so (4eb9f4db50)
ase:    /zhome/3e/3/126995/10302-venv/ase/ase (version 3.23.0b1-0aae5214fa)
numpy:  /zhome/3e/3/126995/10302-venv/lib/python3.8/site-packages/numpy (version 1.22.1)
scipy:  /zhome/3e/3/126995/10302-venv/lib/python3.8/site-packages/scipy (version 1.7.3)
units:  Angstrom and eV
cores: 8
OpenMP: False
OMP_NUM_THREADS: 1

Input parameters:
  kpts: {gamma: True,
         size: (30, 30, 1)}
  mode: {ecut: 600.0,
         name: pw}
  occupations: {fixmagmom: False,
                name: fermi-dirac,
                width: 0.01}

System changes: positions, numbers, cell, pbc, initial_charges, initial_magmoms

Initialize ...

W-setup:
  name: Tungsten
  id: dbf51f8f2403584f561c931159e66636
  Z: 74.0
  valence: 14
  core: 60
  charge: 0.0
  file: /zhome/86/d/1666/PAW/gpaw-setups-0.9.20000/W.LDA.gz
  compensation charges: gauss, rc=0.40, lmax=2
  cutoffs: 2.36(filt), 3.02(core),
  valence states:
                energy  radius
    5s(2.00)   -79.053   1.344
    6s(2.00)    -5.886   1.344
    5p(6.00)   -43.417   1.355
    6p(0.00)    -1.469   1.355
    5d(4.00)    -4.693   1.228
    *d          22.518   1.228

  Using partial waves for W as LCAO basis

Se-setup:
  name: Selenium
  id: 32bc71fdf0f79e2eec071fc2341e94af
  Z: 34.0
  valence: 6
  core: 28
  charge: 0.0
  file: /zhome/86/d/1666/PAW/gpaw-setups-0.9.20000/Se.LDA.gz
  compensation charges: gauss, rc=0.27, lmax=2
  cutoffs: 1.77(filt), 2.67(core),
  valence states:
                energy  radius
    4s(2.00)   -17.472   0.847
    4p(4.00)    -6.656   1.005
    *s           9.739   0.847
    *p          20.555   1.005
    *d           0.000   0.847

  Using partial waves for Se as LCAO basis

Reference energy: -570550.453495

Spin-paired calculation

Convergence criteria:
 Maximum [total energy] change in last 3 cyles: 0.0005 eV / electron
 Maximum integral of absolute [dens]ity change: 0.0001 electrons / valence electron
 Maximum integral of absolute [eigenst]ate change: 4e-08 eV^2 / valence electron
 Maximum number of scf [iter]ations: 333
 (Square brackets indicate name in SCF output, whereas a 'c' in
 the SCF output indicates the quantity has converged.)

Symmetries present (total): 12

  ( 1  1  0)  ( 1  1  0)  ( 1  0  0)  ( 1  0  0)  ( 0  1  0)  ( 0  1  0)
  ( 0 -1  0)  ( 0 -1  0)  ( 0  1  0)  ( 0  1  0)  (-1 -1  0)  (-1 -1  0)
  ( 0  0  1)  ( 0  0 -1)  ( 0  0  1)  ( 0  0 -1)  ( 0  0  1)  ( 0  0 -1)

  ( 0 -1  0)  ( 0 -1  0)  (-1  0  0)  (-1  0  0)  (-1 -1  0)  (-1 -1  0)
  (-1  0  0)  (-1  0  0)  ( 1  1  0)  ( 1  1  0)  ( 1  0  0)  ( 1  0  0)
  ( 0  0  1)  ( 0  0 -1)  ( 0  0  1)  ( 0  0 -1)  ( 0  0  1)  ( 0  0 -1)

900 k-points: 30 x 30 x 1 Monkhorst-Pack grid + [1/60,1/60,0.000000]
91 k-points in the irreducible part of the Brillouin zone
       k-points in crystal coordinates                weights
   0:     0.00000000    0.00000000    0.00000000          1/900
   1:     0.03333333    0.00000000    0.00000000          6/900
   2:     0.06666667   -0.03333333    0.00000000          6/900
   3:     0.06666667    0.00000000    0.00000000          6/900
   4:     0.10000000   -0.03333333    0.00000000         12/900
   5:     0.10000000    0.00000000    0.00000000          6/900
   6:     0.13333333   -0.06666667    0.00000000          6/900
   7:     0.13333333   -0.03333333    0.00000000         12/900
   8:     0.13333333    0.00000000    0.00000000          6/900
   9:     0.16666667   -0.06666667    0.00000000         12/900
          ...
  90:     0.50000000    0.50000000    0.00000000          3/900

Wave functions: Plane wave expansion
  Cutoff energy: 600.000 eV
  Number of coefficients (min, max): 5801, 5917
  Pulay-stress correction: 0.000000 eV/Ang^3 (de/decut=0.000000)
  Using FFTW library
  ScaLapack parameters: grid=1x1, blocksize=None
  Wavefunction extrapolation:
    Improved wavefunction reuse through dual PAW basis

Occupation numbers: Fermi-Dirac: width=0.0100 eV

Eigensolver
   Davidson(niter=2)

Densities:
  Coarse grid: 20*20*105 grid
  Fine grid: 40*40*210 grid
  Total Charge: 0.000000

Density mixing:
  Method: separate
  Backend: pulay
  Linear mixing parameter: 0.05
  Mixing with 5 old densities
  Damping of long wave oscillations: 50

Hamiltonian:
  XC and Coulomb potentials evaluated on a 40*40*210 grid
  Using the LDA Exchange-Correlation functional
  External potential:
    NoExternalPotential

Total number of cores used: 8
Parallelization over k-points: 8

Number of atoms: 3
Number of atomic orbitals: 21
Number of bands in calculation: 20
Number of valence electrons: 26
Bands to converge: occupied

... initialized

Initializing position-dependent things.

Density initialized from atomic densities
Creating initial wave functions:
  20 bands from LCAO basis set

            Se

[...]

            Se

Positions:
   0 W      0.000000    0.000000    9.179276    ( 0.0000,  0.0000,  0.0000)
   1 Se     1.659503    0.958115   10.858553    ( 0.0000,  0.0000,  0.0000)
   2 Se     1.659503    0.958115    7.500000    ( 0.0000,  0.0000,  0.0000)

Unit cell:
           periodic     x           y           z      points  spacing
  1. axis:    yes    3.319007    0.000000    0.000000    20     0.1437
  2. axis:    yes   -1.659503    2.874344    0.000000    20     0.1437
  3. axis:    yes    0.000000    0.000000   18.358553   105     0.1748

  Lengths:   3.319007   3.319007  18.358553
  Angles:   90.000000  90.000000 120.000000

Effective grid spacing dv^(1/3) = 0.1610

     iter     time        total  log10-change:
                         energy  eigst   dens
iter:   1 15:48:49   -23.017373
iter:   2 15:48:50   -22.993079  -1.19  -1.25
iter:   3 15:48:52   -23.023820  -1.04  -1.27
iter:   4 15:48:53   -22.901615  -2.22  -1.51
iter:   5 15:48:55   -22.817008  -2.43  -1.63
iter:   6 15:48:57   -22.787144  -2.78  -1.83
iter:   7 15:48:58   -22.762679  -2.71  -2.01
iter:   8 15:49:00   -22.763726  -3.72  -2.61
iter:   9 15:49:01   -22.761987c -3.72  -2.52
iter:  10 15:49:03   -22.761624c -3.88  -2.86
iter:  11 15:49:04   -22.761628c -4.48  -3.45
iter:  12 15:49:06   -22.761622c -4.80  -3.43
iter:  13 15:49:08   -22.761603c -5.07  -3.45
iter:  14 15:49:09   -22.761611c -5.35  -3.63
iter:  15 15:49:11   -22.761597c -5.46  -3.50
iter:  16 15:49:12   -22.761595c -5.75  -3.78
iter:  17 15:49:14   -22.761593c -5.98  -3.95
iter:  18 15:49:15   -22.761593c -6.27  -4.15c
iter:  19 15:49:17   -22.761593c -6.53  -4.15c
iter:  20 15:49:19   -22.761593c -6.48  -4.17c
iter:  21 15:49:20   -22.761592c -6.87  -4.12c
iter:  22 15:49:22   -22.761593c -6.76  -4.24c
iter:  23 15:49:23   -22.761592c -7.14  -4.23c
iter:  24 15:49:25   -22.761592c -7.51c -4.75c

Converged after 24 iterations.

Dipole moment: (4.162316, -2.403114, -0.000000) |e|*Ang

Energy contributions relative to reference atoms: (reference = -570550.453495)

Kinetic:        +13.400796
Potential:      -15.327889
External:        +0.000000
XC:             -20.777520
Entropy (-ST):   -0.000000
Local:           -0.056979
Free energy:    -22.761592
Extrapolated:   -22.761592

Showing only first 2 kpts
 Kpt  Band  Eigenvalues  Occupancy
  0    11     -1.92110    2.00000
  0    12     -1.02048    2.00000
  0    13      2.19537    0.00000
  0    14      2.19537    0.00000

  1    11     -1.90536    2.00000
  1    12     -1.02450    2.00000
  1    13      2.14542    0.00000
  1    14      2.22551    0.00000

Fermi level: 0.65628

Gap: 1.543 eV
Transition (v -> c):
  (s=0, k=36, n=12, [0.33, 0.33, 0.00]) -> (s=0, k=36, n=13, [0.33, 0.33, 0.00])
Diagonalizing full Hamiltonian (500 lowest bands)
Matrix size (min, max): 5801, 5917
during diagonalization algorithm.
over states (bands) and not k-points, set GPAW(..., parallel={'kpt': 1}, ...).
1469.0096139907837s |----------------------------------------| Time: 1450.743s
Writing to WSe2_gs_fulldiag.gpw (mode='all')