User:   s173965@x171.nifl.fysik.dtu.dk
Date:   Sun May 15 04:31:01 2022
Arch:   x86_64
Pid:    16968
CWD:    /home/niflheim/s173965/dft-superfluids/independent_calculations/cheap_eigenvalues_and_building_blocks
Python: 3.8.6
gpaw:   /home/niflheim/s173965/venv/gpaw/gpaw (a6784661f4)
_gpaw:  /home/niflheim/s173965/venv/gpaw/build/lib.linux-x86_64-broadwell-3.8/
        _gpaw.cpython-38-x86_64-linux-gnu.so (a6784661f4)
ase:    /home/niflheim/s173965/venv/ase/ase (version 3.23.0b1-1865c9075a)
numpy:  /home/modules/software/SciPy-bundle/2020.11-foss-2020b/lib/python3.8/site-packages/numpy (version 1.19.4)
scipy:  /home/modules/software/SciPy-bundle/2020.11-foss-2020b/lib/python3.8/site-packages/scipy (version 1.5.4)
units:  Angstrom and eV
cores: 24
OpenMP: False
OMP_NUM_THREADS: 1

Input parameters:
  kpts: {gamma: True,
         size: (10, 10, 1)}
  mode: {ecut: 500.0,
         name: pw}
  occupations: {fixmagmom: False,
                name: fermi-dirac,
                width: 0.01}
  xc: PBE

System changes: positions, numbers, cell, pbc, initial_charges, initial_magmoms

Initialize ...

W-setup:
  name: Tungsten
  id: 3ed563b7d19992259c4d7db283f2ff78
  Z: 74.0
  valence: 14
  core: 60
  charge: 0.0
  file: /home/modules/software/GPAW-setups/0.9.20000/W.PBE.gz
  compensation charges: gauss, rc=0.40, lmax=2
  cutoffs: 2.36(filt), 3.02(core),
  valence states:
                energy  radius
    5s(2.00)   -78.830   1.344
    6s(2.00)    -5.697   1.344
    5p(6.00)   -43.233   1.355
    6p(0.00)    -1.367   1.355
    5d(4.00)    -4.494   1.228
    *d          22.717   1.228

  Using partial waves for W as LCAO basis

Se-setup:
  name: Selenium
  id: 2336a0774a38175ff9db42ee3890f88a
  Z: 34.0
  valence: 6
  core: 28
  charge: 0.0
  file: /home/modules/software/GPAW-setups/0.9.20000/Se.PBE.gz
  compensation charges: gauss, rc=0.27, lmax=2
  cutoffs: 1.77(filt), 2.67(core),
  valence states:
                energy  radius
    4s(2.00)   -17.277   0.847
    4p(4.00)    -6.512   1.005
    *s           9.935   0.847
    *p          20.699   1.005
    *d           0.000   0.847

  Using partial waves for Se as LCAO basis

Reference energy: -570978.735916

Spin-paired calculation

Convergence criteria:
 Maximum [total energy] change in last 3 cyles: 0.0005 eV / electron
 Maximum integral of absolute [dens]ity change: 0.0001 electrons / valence electron
 Maximum integral of absolute [eigenst]ate change: 4e-08 eV^2 / valence electron
 Maximum number of scf [iter]ations: 333
 (Square brackets indicate name in SCF output, whereas a 'c' in
 the SCF output indicates the quantity has converged.)

Symmetries present (total): 12

  ( 1  1  0)  ( 1  1  0)  ( 1  0  0)  ( 1  0  0)  ( 0  1  0)  ( 0  1  0)
  ( 0 -1  0)  ( 0 -1  0)  ( 0  1  0)  ( 0  1  0)  (-1 -1  0)  (-1 -1  0)
  ( 0  0  1)  ( 0  0 -1)  ( 0  0  1)  ( 0  0 -1)  ( 0  0  1)  ( 0  0 -1)

  ( 0 -1  0)  ( 0 -1  0)  (-1  0  0)  (-1  0  0)  (-1 -1  0)  (-1 -1  0)
  (-1  0  0)  (-1  0  0)  ( 1  1  0)  ( 1  1  0)  ( 1  0  0)  ( 1  0  0)
  ( 0  0  1)  ( 0  0 -1)  ( 0  0  1)  ( 0  0 -1)  ( 0  0  1)  ( 0  0 -1)

100 k-points: 10 x 10 x 1 Monkhorst-Pack grid + [1/20,1/20,0.000000]
14 k-points in the irreducible part of the Brillouin zone
       k-points in crystal coordinates                weights
   0:     0.00000000    0.00000000    0.00000000          1/100
   1:     0.10000000    0.00000000    0.00000000          6/100
   2:     0.20000000   -0.10000000    0.00000000          6/100
   3:     0.20000000    0.00000000    0.00000000          6/100
   4:     0.30000000   -0.10000000    0.00000000         12/100
   5:     0.30000000    0.00000000    0.00000000          6/100
   6:     0.40000000   -0.20000000    0.00000000          6/100
   7:     0.40000000   -0.10000000    0.00000000         12/100
   8:     0.40000000    0.00000000    0.00000000          6/100
   9:     0.40000000    0.30000000    0.00000000          6/100
          ...
  13:     0.50000000    0.50000000    0.00000000          3/100

Wave functions: Plane wave expansion
  Cutoff energy: 500.000 eV
  Number of coefficients (min, max): 5545, 5718
  Pulay-stress correction: 0.000000 eV/Ang^3 (de/decut=0.000000)
  Using FFTW library
  ScaLapack parameters: grid=1x1, blocksize=None
  Wavefunction extrapolation:
    Improved wavefunction reuse through dual PAW basis

Occupation numbers: Fermi-Dirac: width=0.0100 eV

Eigensolver
   Davidson(niter=2)

Densities:
  Coarse grid: 18*18*125 grid
  Fine grid: 36*36*250 grid
  Total Charge: 0.000000

Density mixing:
  Method: separate
  Backend: pulay
  Linear mixing parameter: 0.05
  Mixing with 5 old densities
  Damping of long wave oscillations: 50

Hamiltonian:
  XC and Coulomb potentials evaluated on a 36*36*250 grid
  Using the PBE Exchange-Correlation functional
  External potential:
    NoExternalPotential

XC parameters: PBE with 2 nearest neighbor stencil

Total number of cores used: 24
Parallelization over k-points: 8
Parallelization over states: 3

Number of atoms: 3
Number of atomic orbitals: 21
Number of bands in calculation: 20
Number of valence electrons: 26
Bands to converge: occupied

... initialized

Initializing position-dependent things.

Density initialized from atomic densities
Creating initial wave functions:
  20 bands from LCAO basis set

            Se

[...]

            Se

Positions:
   0 W      0.000000    0.000000   11.679276    ( 0.0000,  0.0000,  0.0000)
   1 Se     1.659503    0.958115   13.358553    ( 0.0000,  0.0000,  0.0000)
   2 Se     1.659503    0.958115   10.000000    ( 0.0000,  0.0000,  0.0000)

Unit cell:
           periodic     x           y           z      points  spacing
  1. axis:    yes    3.319007    0.000000    0.000000    18     0.1597
  2. axis:    yes   -1.659503    2.874344    0.000000    18     0.1597
  3. axis:    yes    0.000000    0.000000   23.358553   125     0.1869

  Lengths:   3.319007   3.319007  23.358553
  Angles:   90.000000  90.000000 120.000000

Effective grid spacing dv^(1/3) = 0.1765

     iter     time        total  log10-change:
                         energy  eigst   dens
iter:   1 04:31:04   -20.437678
iter:   2 04:31:04   -20.420327  -1.27  -1.24
iter:   3 04:31:05   -20.422628  -1.10  -1.26
iter:   4 04:31:05   -20.349805  -2.28  -1.60
iter:   5 04:31:06   -20.241938  -2.02  -1.69
iter:   6 04:31:06   -20.251068  -2.94  -2.10
iter:   7 04:31:06   -20.242417c -3.14  -2.23
iter:   8 04:31:07   -20.241872c -3.70  -2.52
iter:   9 04:31:07   -20.240627c -3.70  -2.60
iter:  10 04:31:08   -20.240459c -4.00  -2.99
iter:  11 04:31:08   -20.240458c -4.48  -3.72
iter:  12 04:31:09   -20.240454c -4.76  -3.75
iter:  13 04:31:09   -20.240454c -4.99  -3.75
iter:  14 04:31:10   -20.240451c -5.29  -3.95
iter:  15 04:31:10   -20.240451c -5.55  -4.04c
iter:  16 04:31:11   -20.240451c -5.82  -4.06c
iter:  17 04:31:11   -20.240451c -6.04  -4.15c
iter:  18 04:31:12   -20.240451c -6.27  -4.14c
iter:  19 04:31:12   -20.240451c -6.47  -4.19c
iter:  20 04:31:13   -20.240451c -6.69  -4.36c
iter:  21 04:31:13   -20.240451c -6.90  -4.42c
iter:  22 04:31:14   -20.240451c -7.10  -4.50c
iter:  23 04:31:14   -20.240451c -7.30  -4.52c
iter:  24 04:31:15   -20.240451c -7.41c -4.57c

Converged after 24 iterations.

Dipole moment: (4.156545, -2.399782, 0.000000) |e|*Ang

Energy contributions relative to reference atoms: (reference = -570978.735916)

Kinetic:        +17.874964
Potential:      -19.316924
External:        +0.000000
XC:             -18.722353
Entropy (-ST):   -0.000000
Local:           -0.076138
Free energy:    -20.240451
Extrapolated:   -20.240451

Showing only first 2 kpts
 Kpt  Band  Eigenvalues  Occupancy
  0    11     -2.63751    2.00000
  0    12     -1.73899    2.00000
  0    13      1.48417    0.00000
  0    14      1.48417    0.00000

  1    11     -2.60224    2.00000
  1    12     -1.79152    2.00000
  1    13      1.09150    0.00000
  1    14      1.18838    0.00000

Fermi level: -0.34437

Gap: 1.846 eV
Transition (v -> c):
  (s=0, k=9, n=12, [0.40, 0.30, 0.00]) -> (s=0, k=9, n=13, [0.40, 0.30, 0.00])
Writing to ./out/WSe2_xc=PBE_no_kpts=10_gs.gpw (mode='all')

Diagonalizing full Hamiltonian (522 lowest bands)
Matrix size (min, max): 5545, 5718
during diagonalization algorithm.
over states (bands) and not k-points, set GPAW(..., parallel={'kpt': 1}, ...).
ScaLapack grid: 1x3, block-size: 64
116.61418318748474s |----------------------------------------| Time: 116.614s
Writing to ./out/WSe2_xc=PBE_no_kpts=10_fulldiag.gpw (mode='all')